c --- [ banner ] -------------------------------------------------------------
c 
c CaDiCaL Radically Simplified CDCL SAT Solver
c Copyright (c) 2016-2021 A. Biere, M. Fleury, N. Froleyks
c 
c Version 1.5.2 9c38a080b32c28d805e8e6ca21849856b0cda605
c g++ (Ubuntu 7.5.0-3ubuntu1~18.04) 7.5.0 -Wall -Wextra -O3 -DNDEBUG
c Wed Feb 16 23:15:36 EST 2022 Linux fac-vanhoeve01 5.4.0-99-generic x86_64
c 
c --- [ limit ] --------------------------------------------------------------
c 
c setting time limit to 600 seconds real time (due to '-t 600')
c setting conflict limit to 1000000000 conflicts (due to '1000000000')
c 
c --- [ parsing input ] ------------------------------------------------------
c 
c reading DIMACS file from 'ddfwcnfs/qg.order100.col_100.cnf'
c opening file to read 'ddfwcnfs/qg.order100.col_100.cnf'
c found 'p cnf 1000000 97534900' header
c parsed 97534900 clauses in 55.16 seconds process time
c closing file 'ddfwcnfs/qg.order100.col_100.cnf'
c after reading 1744410611 bytes 1663.6 MB
c 
c --- [ options ] ------------------------------------------------------------
c 
c all options are set to their default value
c 
c --- [ solving ] ------------------------------------------------------------
c 
c time measured in process time since initialization
c 
c  seconds    reductions  redundant   irredundant
c          MB     restarts       trail         variables
c            level   conflicts       glue            remaining
c 
c * 55.16 7773  0 0   0    0    0  0% 0 97524900 990000 99%
c { 55.28 7777  0 0   0    0    0  0% 0 97524900 990000 99%
c - 68.67 7777 99 1   0  300  135  3% 98 97524900 990000 99%
c } 69.85 7777 101 1   0 1002  588  3% 98 97524900 990000 99%
c [ 69.85 7777  0 1   0 1002  588  0% 0 97524900 990000 99%
c O 69.87 7777 97 1   0 1003  589  3% 97 97524900 990000 99%
c - 113.75 10014 105 2   1 2694 1614  3% 100 97524900 990000 99%
c ] 113.97 10014 105 2   1 3002 1838  3% 100 97524900 990000 99%
c { 113.97 10014 101 2   1 3002 1838  3% 98 97524900 990000 99%
c F 113.99 10014 101 2   1 3004 1840  3% 98 97524900 990000 99%
c # 184.47 9968 102 2   2 6007 3839  3% 99 97524900 990000 99%
c - 218.93 9968 108 3   2 6285 2927  3% 99 97524900 990000 99%
c } 219.09 9968 119 3   2 7002 3516  3% 99 97524900 990000 99%
c [ 219.09 9968 105 3   2 7002 3516  3% 100 97524900 990000 99%
c I 219.80 9968 114 3   4 10008 5740  3% 101 97524900 990000 99%
c - 253.77 9970 3041 4   5 11073 4456  7% 107 97524900 990000 99%
c s 282.94 9970 4983 4   6 13249 5974 12% 117 97524900 990000 99%
c e 379.22 9970 4983 4   6 13249 3567 12% 117 96059700 980100 98%
c s 381.68 9970 4983 4   6 13249 3544 12% 117 96059700 980100 98%
c ^ 403.32 9970 4983 4   6 13249 3544 12% 117 96059700 980100 98%
c 
c  seconds       reductions   redundant     irredundant
c           MB       restarts        trail           variables
c              level     conflicts        glue             remaining
c 
c ] 404.93 9970 4842 4   7 15004 5024 14% 134 96059700 980100 98%
c { 404.93 9970 119 4   7 15004 5024  3% 99 96059700 980100 98%
c B 493.44 9970 156 4   7 15010 5030  3% 99 96059700 980100 98%
c - 541.00 9926 705 5  31 17057 5018  3% 99 96059700 980100 98%
c W 578.82 9926 481 5  31 21011 7652  3% 99 96059700 980100 98%
c - 621.71 9926 390 6  31 24225 5857  3% 99 96059700 980100 98%
c } 621.71 9926 390 6  31 24231 5862  3% 99 96059700 980100 98%
c ? 621.71 9926 390 6  31 24231 5862  3% 99 96059700 980100 98%
c 
c --- [ result ] -------------------------------------------------------------
c 
c UNKNOWN
c 
c --- [ run-time profiling ] -------------------------------------------------
c 
c process time taken by individual solving procedures
c (percentage relative to process time for solving)
c 
c       298.60   52.71% search
c       267.94   47.29% simplify
c       142.57   25.16% unstable
c       120.33   21.24% stable
c        74.21   13.10% ternary
c        55.16    9.74% parse
c        49.88    8.80% vivify
c        35.59    6.28% walk
c        30.07    5.31% subsume
c        27.77    4.90% elim
c         6.25    1.10% probe
c         0.12    0.02% lucky
c   =================================
c       566.55   91.13% solve
c 
c last line shows process time for solving
c (percentage relative to total process time)
c 
c --- [ statistics ] ---------------------------------------------------------
c 
c chronological:              5130        21.17 %  of conflicts
c conflicts:                 24231        42.77    per second
c decisions:                752381      1328.01    per second
c eliminated:                 9900         0.99 %  of all variables
c fixed:                     10000         1.00 %  of all variables
c learned:                   24049        99.25 %  per conflict
c learned_lits:            7557246       100.00 %  learned literals
c minimized:                     0         0.00 %  learned literals
c shrunken:                4679086        61.92 %  learned literals
c minishrunken:              23824         0.32 %  learned literals
c propagations:           21566520         0.04 M  per second
c reduced:                    8262        34.10 %  per conflict
c rephased:                      6      4038.50    interval
c restarts:                     31       781.65    interval
c stabilizing:                   2        41.28 %  of conflicts
c subsumed:                   7518         0.00 %  of all clauses
c strengthened:                 47         0.00 %  of all clauses
c walked:                        1     24231.00    interval
c weakened:                1465200         2.00    average size
c 
c seconds are measured in process time for solving
c 
c --- [ resources ] ----------------------------------------------------------
c 
c total process time since initialization:       621.71    seconds
c total real time since initialization:          621.75    seconds
c maximum resident set size of process:        12950.85    MB
c 
c --- [ shutting down ] ------------------------------------------------------
c 
c exit 0
